(set-logic LRA)
 
(define-fun OutputNeuron_0_idx0 ((onnx__MatMul_0_0 Real) (onnx__MatMul_0_1 Real) (onnx__MatMul_0_2 Real) (onnx__MatMul_0_3 Real) (onnx__MatMul_0_4 Real) (onnx__MatMul_0_5 Real) (onnx__MatMul_0_6 Real) (onnx__MatMul_0_7 Real)) Real
  (+ (/ 1350781.0 1000000.0)
   (* (- (/ 318401.0 500000.0)) onnx__MatMul_0_0)
   (* (- (/ 214841.0 250000.0)) onnx__MatMul_0_1)
   (* (/ 170643.0 200000.0) onnx__MatMul_0_2)
   (* (/ 126909.0 500000.0) onnx__MatMul_0_3)
   (* (- (/ 77719.0 500000.0)) onnx__MatMul_0_4)
   (* (- (/ 98431.0 200000.0)) onnx__MatMul_0_5)
   (* (- (/ 48737.0 100000.0)) onnx__MatMul_0_6)
   (* (- (/ 966649.0 1000000.0)) onnx__MatMul_0_7))
)

(define-fun OutputNeuron_0_idx1 ((onnx__MatMul_0_0 Real) (onnx__MatMul_0_1 Real) (onnx__MatMul_0_2 Real) (onnx__MatMul_0_3 Real) (onnx__MatMul_0_4 Real) (onnx__MatMul_0_5 Real) (onnx__MatMul_0_6 Real) (onnx__MatMul_0_7 Real)) Real
  (+ (- (/ 303623.0 250000.0))
   (* (/ 676443.0 1000000.0) onnx__MatMul_0_0)
   (* (/ 1109523.0 1000000.0) onnx__MatMul_0_1)
   (* (- (/ 255549.0 500000.0)) onnx__MatMul_0_2)
   (* (/ 9769.0 200000.0) onnx__MatMul_0_3)
   (* (/ 34113.0 50000.0) onnx__MatMul_0_4)
   (* (/ 411893.0 500000.0) onnx__MatMul_0_5)
   (* (/ 951669.0 1000000.0) onnx__MatMul_0_6)
   (* (/ 575799.0 1000000.0) onnx__MatMul_0_7))
)

